(set-logic QF_NRA)
(set-info :source |Benchmarks generated from hycomp (https://es-static.fbk.eu/tools/hycomp/). BMC instances of non-linear hybrid automata taken from: Alessandro Cimatti, Sergio Mover, Stefano Tonetta, A quantifier-free SMT encoding of non-linear hybrid automata, FMCAD 2012 and Alessandro Cimatti, Sergio Mover, Stefano Tonetta, Quantier-free encoding of invariants for Hybrid Systems, Formal Methods in System Design. This instance solves a BMC problem of depth 1 and uses the quantifier free encoding with equivalences encoding. Contacts: Sergio Mover (mover@fbk.eu), Stefano Tonetta (tonettas@fbk.eu), Alessandro Cimatti (cimatti@fbk.eu).|)
(set-info :smt-lib-version 2.0)
(set-info :category "industrial")
(set-info :status unsat)
;; MathSAT API call trace
;; generated on Mon Mar 19 10:42:45 2012
(declare-fun b.x__AT0 () Real)
(declare-fun b.speed_y__AT1 () Real)
(declare-fun b.delta__AT1 () Real)
(declare-fun b.bool_atom__AT0 () Bool)
(declare-fun b.y__AT0 () Real)
(declare-fun b.EVENT.1__AT1 () Bool)
(declare-fun b.EVENT.0__AT1 () Bool)
(declare-fun b.counter.0__AT0 () Bool)
(declare-fun b.delta__AT0 () Real)
(declare-fun b.counter.1__AT0 () Bool)
(declare-fun b.y__AT1 () Real)
(declare-fun b.EVENT.0__AT0 () Bool)
(declare-fun b.speed_y__AT0 () Real)
(declare-fun b.event_is_timed__AT0 () Bool)
(declare-fun b.counter.3__AT0 () Bool)
(declare-fun b.speed_x__AT1 () Real)
(declare-fun b.time__AT1 () Real)
(declare-fun b.x__AT1 () Real)
(declare-fun b.event_is_timed__AT1 () Bool)
(declare-fun b.counter.0__AT1 () Bool)
(declare-fun b.EVENT.1__AT0 () Bool)
(declare-fun b.speed_loss__AT0 () Real)
(declare-fun b.counter.1__AT1 () Bool)
(declare-fun b.speed_x__AT0 () Real)
(declare-fun b.counter.2__AT1 () Bool)
(declare-fun b.time__AT0 () Real)
(declare-fun b.counter.2__AT0 () Bool)
(declare-fun b.counter.3__AT1 () Bool)
(declare-fun b.bool_atom__AT1 () Bool)
(assert (let ((.def_464 (* (- 49.0) b.delta__AT1)))
(let ((.def_465 (* 5.0 b.speed_y__AT1)))
(let ((.def_467 (+ .def_465 .def_464)))
(let ((.def_470 (<= 0.0 .def_467)))
(let ((.def_398 (* b.y__AT1 b.speed_y__AT1)))
(let ((.def_438 (* 2.0 .def_398)))
(let ((.def_439 (+ b.speed_x__AT1 .def_438)))
(let ((.def_443 (<= .def_439 0.0 )))
(let ((.def_471 (and .def_443 .def_470)))
(let ((.def_468 (<= .def_467 0.0 )))
(let ((.def_440 (<= 0.0 .def_439)))
(let ((.def_469 (and .def_440 .def_468)))
(let ((.def_472 (or .def_469 .def_471)))
(let ((.def_387 (* (- (/ 49 10)) b.speed_y__AT1)))
(let ((.def_416 (* 3.0 .def_387)))
(let ((.def_448 (* 2.0 .def_416)))
(let ((.def_449 (* b.delta__AT1 .def_448)))
(let ((.def_450 (* (- 50.0) .def_449)))
(let ((.def_382 (* b.delta__AT1 b.delta__AT1)))
(let ((.def_447 (* (- 7203.0) .def_382)))
(let ((.def_451 (+ .def_447 .def_450)))
(let ((.def_266 (* b.speed_y__AT1 b.speed_y__AT1)))
(let ((.def_452 (* (- 50.0) .def_266)))
(let ((.def_456 (+ .def_452 .def_451)))
(let ((.def_454 (* 490.0 b.y__AT1)))
(let ((.def_457 (+ .def_454 .def_456)))
(let ((.def_460 (<= 0.0 .def_457)))
(let ((.def_461 (and .def_443 .def_460)))
(let ((.def_458 (<= .def_457 0.0 )))
(let ((.def_459 (and .def_440 .def_458)))
(let ((.def_462 (or .def_459 .def_461)))
(let ((.def_394 (* (- (/ 49 10)) b.y__AT1)))
(let ((.def_424 (* 2.0 .def_394)))
(let ((.def_425 (* b.delta__AT1 .def_424)))
(let ((.def_426 (* 50.0 .def_425)))
(let ((.def_420 (* 2.0 .def_266)))
(let ((.def_421 (* b.delta__AT1 .def_420)))
(let ((.def_422 (* 25.0 .def_421)))
(let ((.def_432 (+ .def_422 .def_426)))
(let ((.def_417 (* .def_382 .def_416)))
(let ((.def_418 (* 50.0 .def_417)))
(let ((.def_433 (+ .def_418 .def_432)))
(let ((.def_428 (* 50.0 .def_398)))
(let ((.def_434 (+ .def_428 .def_433)))
(let ((.def_383 (* b.delta__AT1 .def_382)))
(let ((.def_415 (* 2401.0 .def_383)))
(let ((.def_435 (+ .def_415 .def_434)))
(let ((.def_430 (* 25.0 b.speed_x__AT1)))
(let ((.def_436 (+ .def_430 .def_435)))
(let ((.def_442 (<= .def_436 0.0 )))
(let ((.def_444 (and .def_442 .def_443)))
(let ((.def_437 (<= 0.0 .def_436)))
(let ((.def_441 (and .def_437 .def_440)))
(let ((.def_445 (or .def_441 .def_444)))
(let ((.def_399 (* b.delta__AT1 .def_398)))
(let ((.def_400 (* 200.0 .def_399)))
(let ((.def_395 (* .def_382 .def_394)))
(let ((.def_396 (* 200.0 .def_395)))
(let ((.def_406 (+ .def_396 .def_400)))
(let ((.def_391 (* .def_266 .def_382)))
(let ((.def_392 (* 100.0 .def_391)))
(let ((.def_407 (+ .def_392 .def_406)))
(let ((.def_388 (* .def_383 .def_387)))
(let ((.def_389 (* 200.0 .def_388)))
(let ((.def_408 (+ .def_389 .def_407)))
(let ((.def_384 (* b.delta__AT1 .def_383)))
(let ((.def_385 (* 2401.0 .def_384)))
(let ((.def_409 (+ .def_385 .def_408)))
(let ((.def_380 (* b.speed_x__AT1 b.delta__AT1)))
(let ((.def_381 (* 100.0 .def_380)))
(let ((.def_410 (+ .def_381 .def_409)))
(let ((.def_371 (* b.y__AT1 b.y__AT1)))
(let ((.def_402 (* 100.0 .def_371)))
(let ((.def_411 (+ .def_402 .def_410)))
(let ((.def_404 (* 100.0 b.x__AT1)))
(let ((.def_412 (+ .def_404 .def_411)))
(let ((.def_413 (<= 0.0 .def_412)))
(let ((.def_372 (+ b.x__AT1 .def_371)))
(let ((.def_373 (<= 0.0 .def_372)))
(let ((.def_414 (and .def_373 .def_413)))
(let ((.def_446 (and .def_414 .def_445)))
(let ((.def_463 (and .def_446 .def_462)))
(let ((.def_473 (and .def_463 .def_472)))
(let ((.def_69 (<= b.speed_loss__AT0 (/ 1 2))))
(let ((.def_66 (<= (/ 1 10) b.speed_loss__AT0)))
(let ((.def_70 (and .def_66 .def_69)))
(let ((.def_474 (and .def_70 .def_473)))
(let ((.def_374 (and .def_70 .def_373)))
(let ((.def_368 (not b.EVENT.0__AT1)))
(let ((.def_366 (not b.EVENT.1__AT1)))
(let ((.def_369 (or .def_366 .def_368)))
(let ((.def_6 (not b.counter.0__AT1)))
(let ((.def_4 (not b.counter.1__AT1)))
(let ((.def_359 (or .def_4 .def_6)))
(let ((.def_363 (or b.counter.3__AT1 .def_359)))
(let ((.def_360 (or b.counter.2__AT1 .def_359)))
(let ((.def_9 (not b.counter.2__AT1)))
(let ((.def_358 (or .def_6 .def_9)))
(let ((.def_361 (and .def_358 .def_360)))
(let ((.def_12 (not b.counter.3__AT1)))
(let ((.def_362 (or .def_12 .def_361)))
(let ((.def_364 (and .def_362 .def_363)))
(let ((.def_370 (and .def_364 .def_369)))
(let ((.def_375 (and .def_370 .def_374)))
(let ((.def_353 (<= 0.0 b.delta__AT0)))
(let ((.def_58 (not b.EVENT.0__AT0)))
(let ((.def_56 (not b.EVENT.1__AT0)))
(let ((.def_189 (and .def_56 .def_58)))
(let ((.def_191 (not .def_189)))
(let ((.def_354 (or .def_191 .def_353)))
(let ((.def_355 (or b.EVENT.1__AT0 .def_354)))
(let ((.def_231 (= b.bool_atom__AT0 b.bool_atom__AT1)))
(let ((.def_226 (= b.counter.0__AT1 b.counter.0__AT0)))
(let ((.def_224 (= b.counter.1__AT1 b.counter.1__AT0)))
(let ((.def_222 (= b.counter.2__AT1 b.counter.2__AT0)))
(let ((.def_221 (= b.counter.3__AT1 b.counter.3__AT0)))
(let ((.def_223 (and .def_221 .def_222)))
(let ((.def_225 (and .def_223 .def_224)))
(let ((.def_227 (and .def_225 .def_226)))
(let ((.def_349 (and .def_227 .def_231)))
(let ((.def_350 (or .def_191 .def_349)))
(let ((.def_351 (or b.EVENT.1__AT0 .def_350)))
(let ((.def_331 (* b.speed_y__AT0 b.delta__AT0)))
(let ((.def_332 (* 10.0 .def_331)))
(let ((.def_336 (* (- 10.0) b.y__AT1)))
(let ((.def_340 (+ .def_336 .def_332)))
(let ((.def_79 (* b.delta__AT0 b.delta__AT0)))
(let ((.def_333 (* (- 49.0) .def_79)))
(let ((.def_341 (+ .def_333 .def_340)))
(let ((.def_338 (* 10.0 b.y__AT0)))
(let ((.def_342 (+ .def_338 .def_341)))
(let ((.def_343 (= .def_342 0.0 )))
(let ((.def_326 (* (- 5.0) b.speed_y__AT1)))
(let ((.def_176 (* (- 49.0) b.delta__AT0)))
(let ((.def_327 (+ .def_176 .def_326)))
(let ((.def_178 (* 5.0 b.speed_y__AT0)))
(let ((.def_328 (+ .def_178 .def_327)))
(let ((.def_329 (= .def_328 0.0 )))
(let ((.def_321 (* (- 1.0) b.x__AT1)))
(let ((.def_76 (* b.speed_x__AT0 b.delta__AT0)))
(let ((.def_322 (+ .def_76 .def_321)))
(let ((.def_323 (+ b.x__AT0 .def_322)))
(let ((.def_324 (= .def_323 0.0 )))
(let ((.def_330 (and .def_324 .def_329)))
(let ((.def_344 (and .def_330 .def_343)))
(let ((.def_216 (= b.speed_x__AT0 b.speed_x__AT1)))
(let ((.def_345 (and .def_216 .def_344)))
(let ((.def_346 (or .def_191 .def_345)))
(let ((.def_213 (= b.y__AT0 b.y__AT1)))
(let ((.def_210 (= b.x__AT0 b.x__AT1)))
(let ((.def_315 (and .def_210 .def_213)))
(let ((.def_316 (and .def_216 .def_315)))
(let ((.def_219 (= b.speed_y__AT0 b.speed_y__AT1)))
(let ((.def_317 (and .def_219 .def_316)))
(let ((.def_312 (= b.delta__AT0 0.0 )))
(let ((.def_313 (and .def_189 .def_312)))
(let ((.def_314 (not .def_313)))
(let ((.def_318 (or .def_314 .def_317)))
(let ((.def_319 (or b.EVENT.1__AT0 .def_318)))
(let ((.def_304 (and .def_216 .def_219)))
(let ((.def_305 (and .def_227 .def_304)))
(let ((.def_306 (or b.bool_atom__AT0 .def_305)))
(let ((.def_280 (or .def_6 b.counter.0__AT0)))
(let ((.def_39 (not b.counter.0__AT0)))
(let ((.def_279 (or b.counter.0__AT1 .def_39)))
(let ((.def_281 (and .def_279 .def_280)))
(let ((.def_282 (and .def_4 .def_281)))
(let ((.def_283 (or b.counter.1__AT0 .def_282)))
(let ((.def_37 (not b.counter.1__AT0)))
(let ((.def_278 (or b.counter.1__AT1 .def_37)))
(let ((.def_284 (and .def_278 .def_283)))
(let ((.def_295 (and .def_9 .def_284)))
(let ((.def_296 (or b.counter.2__AT0 .def_295)))
(let ((.def_290 (and .def_4 .def_39)))
(let ((.def_291 (or b.counter.1__AT0 .def_290)))
(let ((.def_292 (and .def_278 .def_291)))
(let ((.def_293 (and b.counter.2__AT1 .def_292)))
(let ((.def_42 (not b.counter.2__AT0)))
(let ((.def_294 (or .def_42 .def_293)))
(let ((.def_297 (and .def_294 .def_296)))
(let ((.def_298 (and b.counter.3__AT1 .def_297)))
(let ((.def_299 (or b.counter.3__AT0 .def_298)))
(let ((.def_285 (and b.counter.2__AT1 .def_284)))
(let ((.def_286 (or b.counter.2__AT0 .def_285)))
(let ((.def_274 (or b.counter.1__AT1 b.counter.1__AT0)))
(let ((.def_272 (and .def_4 b.counter.0__AT1)))
(let ((.def_273 (or .def_37 .def_272)))
(let ((.def_275 (and .def_273 .def_274)))
(let ((.def_276 (and .def_9 .def_275)))
(let ((.def_277 (or .def_42 .def_276)))
(let ((.def_287 (and .def_277 .def_286)))
(let ((.def_288 (and .def_12 .def_287)))
(let ((.def_45 (not b.counter.3__AT0)))
(let ((.def_289 (or .def_45 .def_288)))
(let ((.def_300 (and .def_289 .def_299)))
(let ((.def_261 (* b.speed_x__AT0 b.speed_x__AT0)))
(let ((.def_93 (* b.speed_y__AT0 b.speed_y__AT0)))
(let ((.def_262 (+ .def_93 .def_261)))
(let ((.def_247 (* (- 1.0) b.speed_loss__AT0)))
(let ((.def_248 (+ 1.0 .def_247)))
(let ((.def_260 (* .def_248 .def_248)))
(let ((.def_263 (* .def_260 .def_262)))
(let ((.def_264 (* (- 1.0) .def_263)))
(let ((.def_268 (+ .def_264 .def_266)))
(let ((.def_259 (* b.speed_x__AT1 b.speed_x__AT1)))
(let ((.def_269 (+ .def_259 .def_268)))
(let ((.def_270 (= .def_269 0.0 )))
(let ((.def_237 (* 2.0 b.y__AT0)))
(let ((.def_251 (* .def_237 .def_248)))
(let ((.def_252 (* b.speed_y__AT0 .def_251)))
(let ((.def_249 (* b.speed_x__AT0 .def_248)))
(let ((.def_255 (+ .def_249 .def_252)))
(let ((.def_245 (* 2.0 b.y__AT1)))
(let ((.def_246 (* b.speed_y__AT1 .def_245)))
(let ((.def_256 (+ .def_246 .def_255)))
(let ((.def_257 (+ b.speed_x__AT1 .def_256)))
(let ((.def_258 (= .def_257 0.0 )))
(let ((.def_271 (and .def_258 .def_270)))
(let ((.def_301 (and .def_271 .def_300)))
(let ((.def_244 (not b.bool_atom__AT0)))
(let ((.def_302 (or .def_244 .def_301)))
(let ((.def_238 (* b.speed_y__AT0 .def_237)))
(let ((.def_239 (+ b.speed_x__AT0 .def_238)))
(let ((.def_240 (<= 0.0 .def_239)))
(let ((.def_241 (not .def_240)))
(let ((.def_61 (* b.y__AT0 b.y__AT0)))
(let ((.def_62 (+ b.x__AT0 .def_61)))
(let ((.def_236 (= .def_62 0.0 )))
(let ((.def_242 (and .def_236 .def_241)))
(let ((.def_243 (= b.bool_atom__AT0 .def_242)))
(let ((.def_303 (and .def_243 .def_302)))
(let ((.def_307 (and .def_303 .def_306)))
(let ((.def_308 (and .def_210 .def_307)))
(let ((.def_309 (and .def_213 .def_308)))
(let ((.def_310 (or .def_189 .def_309)))
(let ((.def_311 (or b.EVENT.1__AT0 .def_310)))
(let ((.def_320 (and .def_311 .def_319)))
(let ((.def_347 (and .def_320 .def_346)))
(let ((.def_196 (= b.time__AT0 b.time__AT1)))
(let ((.def_211 (and .def_196 .def_210)))
(let ((.def_214 (and .def_211 .def_213)))
(let ((.def_217 (and .def_214 .def_216)))
(let ((.def_220 (and .def_217 .def_219)))
(let ((.def_228 (and .def_220 .def_227)))
(let ((.def_232 (and .def_228 .def_231)))
(let ((.def_233 (or .def_56 .def_232)))
(let ((.def_200 (* (- 1.0) b.time__AT1)))
(let ((.def_203 (+ b.delta__AT0 .def_200)))
(let ((.def_204 (+ b.time__AT0 .def_203)))
(let ((.def_205 (= .def_204 0.0 )))
(let ((.def_206 (or .def_191 .def_205)))
(let ((.def_207 (or b.EVENT.1__AT0 .def_206)))
(let ((.def_197 (or .def_189 .def_196)))
(let ((.def_198 (or b.EVENT.1__AT0 .def_197)))
(let ((.def_208 (and .def_198 .def_207)))
(let ((.def_234 (and .def_208 .def_233)))
(let ((.def_193 (= .def_191 b.event_is_timed__AT1)))
(let ((.def_190 (= b.event_is_timed__AT0 .def_189)))
(let ((.def_194 (and .def_190 .def_193)))
(let ((.def_235 (and .def_194 .def_234)))
(let ((.def_348 (and .def_235 .def_347)))
(let ((.def_352 (and .def_348 .def_351)))
(let ((.def_356 (and .def_352 .def_355)))
(let ((.def_357 (and .def_56 .def_356)))
(let ((.def_376 (and .def_357 .def_375)))
(let ((.def_40 (and .def_37 .def_39)))
(let ((.def_43 (and .def_40 .def_42)))
(let ((.def_46 (and .def_43 .def_45)))
(let ((.def_377 (and .def_46 .def_376)))
(let ((.def_180 (+ .def_178 .def_176)))
(let ((.def_183 (<= 0.0 .def_180)))
(let ((.def_101 (* b.y__AT0 b.speed_y__AT0)))
(let ((.def_144 (* 2.0 .def_101)))
(let ((.def_145 (+ b.speed_x__AT0 .def_144)))
(let ((.def_149 (<= .def_145 0.0 )))
(let ((.def_184 (and .def_149 .def_183)))
(let ((.def_181 (<= .def_180 0.0 )))
(let ((.def_146 (<= 0.0 .def_145)))
(let ((.def_182 (and .def_146 .def_181)))
(let ((.def_185 (or .def_182 .def_184)))
(let ((.def_88 (* (- (/ 49 10)) b.speed_y__AT0)))
(let ((.def_120 (* 3.0 .def_88)))
(let ((.def_156 (* 2.0 .def_120)))
(let ((.def_157 (* b.delta__AT0 .def_156)))
(let ((.def_159 (* (- 50.0) .def_157)))
(let ((.def_161 (* (- 50.0) .def_93)))
(let ((.def_166 (+ .def_161 .def_159)))
(let ((.def_155 (* (- 7203.0) .def_79)))
(let ((.def_167 (+ .def_155 .def_166)))
(let ((.def_164 (* 490.0 b.y__AT0)))
(let ((.def_168 (+ .def_164 .def_167)))
(let ((.def_171 (<= 0.0 .def_168)))
(let ((.def_172 (and .def_149 .def_171)))
(let ((.def_169 (<= .def_168 0.0 )))
(let ((.def_170 (and .def_146 .def_169)))
(let ((.def_173 (or .def_170 .def_172)))
(let ((.def_97 (* (- (/ 49 10)) b.y__AT0)))
(let ((.def_130 (* 2.0 .def_97)))
(let ((.def_131 (* b.delta__AT0 .def_130)))
(let ((.def_132 (* 50.0 .def_131)))
(let ((.def_125 (* 2.0 .def_93)))
(let ((.def_126 (* b.delta__AT0 .def_125)))
(let ((.def_128 (* 25.0 .def_126)))
(let ((.def_138 (+ .def_128 .def_132)))
(let ((.def_121 (* .def_79 .def_120)))
(let ((.def_123 (* 50.0 .def_121)))
(let ((.def_139 (+ .def_123 .def_138)))
(let ((.def_134 (* 50.0 .def_101)))
(let ((.def_140 (+ .def_134 .def_139)))
(let ((.def_80 (* b.delta__AT0 .def_79)))
(let ((.def_118 (* 2401.0 .def_80)))
(let ((.def_141 (+ .def_118 .def_140)))
(let ((.def_136 (* 25.0 b.speed_x__AT0)))
(let ((.def_142 (+ .def_136 .def_141)))
(let ((.def_148 (<= .def_142 0.0 )))
(let ((.def_150 (and .def_148 .def_149)))
(let ((.def_143 (<= 0.0 .def_142)))
(let ((.def_147 (and .def_143 .def_146)))
(let ((.def_151 (or .def_147 .def_150)))
(let ((.def_102 (* b.delta__AT0 .def_101)))
(let ((.def_103 (* 200.0 .def_102)))
(let ((.def_98 (* .def_79 .def_97)))
(let ((.def_99 (* 200.0 .def_98)))
(let ((.def_109 (+ .def_99 .def_103)))
(let ((.def_94 (* .def_79 .def_93)))
(let ((.def_95 (* 100.0 .def_94)))
(let ((.def_110 (+ .def_95 .def_109)))
(let ((.def_89 (* .def_80 .def_88)))
(let ((.def_91 (* 200.0 .def_89)))
(let ((.def_111 (+ .def_91 .def_110)))
(let ((.def_81 (* b.delta__AT0 .def_80)))
(let ((.def_83 (* 2401.0 .def_81)))
(let ((.def_112 (+ .def_83 .def_111)))
(let ((.def_78 (* 100.0 .def_76)))
(let ((.def_113 (+ .def_78 .def_112)))
(let ((.def_105 (* 100.0 .def_61)))
(let ((.def_114 (+ .def_105 .def_113)))
(let ((.def_107 (* 100.0 b.x__AT0)))
(let ((.def_115 (+ .def_107 .def_114)))
(let ((.def_116 (<= 0.0 .def_115)))
(let ((.def_63 (<= 0.0 .def_62)))
(let ((.def_117 (and .def_63 .def_116)))
(let ((.def_152 (and .def_117 .def_151)))
(let ((.def_174 (and .def_152 .def_173)))
(let ((.def_186 (and .def_174 .def_185)))
(let ((.def_187 (and .def_70 .def_186)))
(let ((.def_71 (and .def_63 .def_70)))
(let ((.def_59 (or .def_56 .def_58)))
(let ((.def_49 (or .def_37 .def_39)))
(let ((.def_53 (or b.counter.3__AT0 .def_49)))
(let ((.def_50 (or b.counter.2__AT0 .def_49)))
(let ((.def_48 (or .def_39 .def_42)))
(let ((.def_51 (and .def_48 .def_50)))
(let ((.def_52 (or .def_45 .def_51)))
(let ((.def_54 (and .def_52 .def_53)))
(let ((.def_60 (and .def_54 .def_59)))
(let ((.def_72 (and .def_60 .def_71)))
(let ((.def_34 (= b.speed_y__AT0 1.0 )))
(let ((.def_31 (= b.speed_x__AT0 1.0 )))
(let ((.def_27 (= b.y__AT0 10.0 )))
(let ((.def_23 (= b.x__AT0 (- 9.0) )))
(let ((.def_17 (= b.time__AT0 0.0 )))
(let ((.def_19 (and .def_17 b.event_is_timed__AT0)))
(let ((.def_24 (and .def_19 .def_23)))
(let ((.def_28 (and .def_24 .def_27)))
(let ((.def_32 (and .def_28 .def_31)))
(let ((.def_35 (and .def_32 .def_34)))
(let ((.def_47 (and .def_35 .def_46)))
(let ((.def_73 (and .def_47 .def_72)))
(let ((.def_7 (and .def_4 .def_6)))
(let ((.def_10 (and .def_7 .def_9)))
(let ((.def_13 (and .def_10 .def_12)))
(let ((.def_14 (not .def_13)))
(let ((.def_74 (and .def_14 .def_73)))
(let ((.def_188 (and .def_74 .def_187)))
(let ((.def_378 (and .def_188 .def_377)))
(let ((.def_475 (and .def_378 .def_474)))
.def_475))))))))))))))))))))))))))))))))))))))))))))))))))))))))))))))))))))))))))))))))))))))))))))))))))))))))))))))))))))))))))))))))))))))))))))))))))))))))))))))))))))))))))))))))))))))))))))))))))))))))))))))))))))))))))))))))))))))))))))))))))))))))))))))))))))))))))))))))))))))))))))))))))))))))))))))))))))))))))))))))))))))))))))))))))))))))))))))))))))))))))))))))))))))))))
(check-sat)
(exit)
